(set-logic HORN)
(declare-datatypes ((Nat_0 0)) (((Z_1 ) (Z_2 (unS_0 Nat_0)))))
(declare-fun diseqNat_0 (Nat_0 Nat_0) Bool)
(declare-datatypes ((list_0 0)) (((nil_0 ) (cons_0 (head_0 Nat_0) (tail_0 list_0)))))
(declare-fun diseqlist_0 (list_0 list_0) Bool)
(declare-fun interleave_0 (list_0 list_0 list_0) Bool)
(declare-fun evens_0 (list_0 list_0) Bool)
(declare-fun odds_0 (list_0 list_0) Bool)
(assert (forall ((x_36 Nat_0))
	(diseqNat_0 Z_1 (Z_2 x_36))))
(assert (forall ((x_37 Nat_0))
	(diseqNat_0 (Z_2 x_37) Z_1)))
(assert (forall ((x_38 Nat_0) (x_39 Nat_0))
	(=> (diseqNat_0 x_38 x_39) (diseqNat_0 (Z_2 x_38) (Z_2 x_39)))))
(assert (forall ((x_24 Nat_0) (x_25 list_0))
	(diseqlist_0 nil_0 (cons_0 x_24 x_25))))
(assert (forall ((x_26 Nat_0) (x_27 list_0))
	(diseqlist_0 (cons_0 x_26 x_27) nil_0)))
(assert (forall ((x_28 Nat_0) (x_29 list_0) (x_30 Nat_0) (x_31 list_0))
	(=> (diseqNat_0 x_28 x_30) (diseqlist_0 (cons_0 x_28 x_29) (cons_0 x_30 x_31)))))
(assert (forall ((x_28 Nat_0) (x_29 list_0) (x_30 Nat_0) (x_31 list_0))
	(=> (diseqlist_0 x_29 x_31) (diseqlist_0 (cons_0 x_28 x_29) (cons_0 x_30 x_31)))))
(assert (forall ((x_6 list_0) (z_0 Nat_0) (xs_0 list_0) (y_0 list_0))
	(=> (interleave_0 x_6 y_0 xs_0) (interleave_0 (cons_0 z_0 x_6) (cons_0 z_0 xs_0) y_0))))
(assert (forall ((x_7 list_0))
	(interleave_0 x_7 nil_0 x_7)))
(assert (forall ((x_9 list_0) (y_1 Nat_0) (xs_1 list_0))
	(=> (odds_0 x_9 xs_1) (evens_0 (cons_0 y_1 x_9) (cons_0 y_1 xs_1)))))
(assert (evens_0 nil_0 nil_0))
(assert (forall ((x_11 list_0) (y_2 Nat_0) (xs_2 list_0))
	(=> (evens_0 x_11 xs_2) (odds_0 x_11 (cons_0 y_2 xs_2)))))
(assert (odds_0 nil_0 nil_0))
(assert (forall ((x_14 list_0) (x_15 list_0) (x_16 list_0) (xs_3 list_0))
	(=> (and (diseqlist_0 x_16 xs_3) (evens_0 x_14 xs_3) (odds_0 x_15 xs_3) (interleave_0 x_16 x_14 x_15)) false)))
(check-sat)
(get-model)
